num_offers = 40;
num_halls = 10;
start=[81,2,46,1,63,43,51,19,68,53,32,45,58,18,92,23,51,53,30,12,32,13,21,39,28,62,28,27,36,62,16,27,53,13,42,39,30,25,56,58];
end=[84,70,85,29,89,54,60,58,94,68,66,77,66,52,97,73,81,86,48,25,98,91,64,48,94,87,31,36,84,80,22,82,63,65,56,61,51,80,82,60];
price=[380,4853,2447,1309,756,278,471,1832,323,1378,2955,1833,627,2011,512,3660,1595,2726,1319,402,3402,1519,1606,195,5600,894,316,117,875,481,582,4709,206,4108,988,1093,483,4536,2017,219];
requirement=[787,259,378,381,951,314,878,932,657,971,419,779,976,947,676,287,297,230,362,729,362,649,583,851,538,472,607,436,466,742,650,223,237,590,591,217,281,424,931,628];
capacity=[490,677,997,209,359,930,768,511,381,978];
